asp/input/in_60_30_8_2.lp
#const n = 60.
#const k = 30.
#const h = 8.
tile(1,21,7).
tile(2,4,13).
tile(3,15,22).
tile(4,23,2).
tile(5,27,18).
tile(6,4,3).
tile(7,29,22).
tile(8,8,28).
tile(9,26,24).
tile(10,5,16).
tile(11,6,10).
tile(12,29,10).
tile(13,11,7).
tile(14,18,20).
tile(15,3,29).
tile(16,4,24).
tile(17,28,27).
tile(18,12,25).
tile(19,26,14).
tile(20,11,9).
tile(21,26,25).
tile(22,25,7).
tile(23,24,29).
tile(24,14,10).
tile(25,14,10).
tile(26,11,14).
tile(27,30,29).
tile(28,5,30).
tile(29,19,21).
tile(30,18,28).
tile(31,13,24).
tile(32,25,23).
tile(33,12,4).
tile(34,3,4).
tile(35,14,1).
tile(36,11,1).
tile(37,4,3).
tile(38,29,4).
tile(39,2,23).
tile(40,7,9).
tile(41,6,5).
tile(42,24,24).
tile(43,21,4).
tile(44,25,27).
tile(45,21,26).
tile(46,28,8).
tile(47,22,19).
tile(48,16,11).
tile(49,24,22).
tile(50,30,11).
tile(51,21,26).
tile(52,24,11).
tile(53,30,5).
tile(54,16,8).
tile(55,13,25).
tile(56,22,20).
tile(57,11,8).
tile(58,22,25).
tile(59,26,12).
tile(60,6,27).
