instances/in_60_30_8_2.dzn
n = 60;
k = 30;
h = 8;
tiles = array2d(1..n, 1..2,
[ 21,7
, 4,13
, 15,22
, 23,2
, 27,18
, 4,3
, 29,22
, 8,28
, 26,24
, 5,16
, 6,10
, 29,10
, 11,7
, 18,20
, 3,29
, 4,24
, 28,27
, 12,25
, 26,14
, 11,9
, 26,25
, 25,7
, 24,29
, 14,10
, 14,10
, 11,14
, 30,29
, 5,30
, 19,21
, 18,28
, 13,24
, 25,23
, 12,4
, 3,4
, 14,1
, 11,1
, 4,3
, 29,4
, 2,23
, 7,9
, 6,5
, 24,24
, 21,4
, 25,27
, 21,26
, 28,8
, 22,19
, 16,11
, 24,22
, 30,11
, 21,26
, 24,11
, 30,5
, 16,8
, 13,25
, 22,20
, 11,8
, 22,25
, 26,12
, 6,27
]);